3 
4  50 
5  10 26 41 59 
6  13 28 43 58 
7  13 28 43 58 
8  13 28 43 58 
9  13 28 43 58 
10  13 28 43 58 
11  13 28 43 58 
12  13 28 43 58 
13  13 28 43 58 
14  13 28 43 58 
15  13 28 43 58 
16  13 28 43 58 
17  13 28 43 58 
18  13 28 43 58 
19  13 28 43 58 
20  13 25 40 55 
21  10 25 40 55 
22  10 25 41 57 
23 
0 
